p tw 82 188
0 1
0 2
0 3
0 52
0 53
0 54
1 2
1 3
1 63
1 64
2 3
2 13
2 69
3 62
4 5
4 19
4 22
4 58
4 65
5 23
6 7
6 30
6 42
6 57
7 41
7 73
8 9
8 10
8 11
8 12
8 29
8 30
9 10
9 11
9 12
9 21
9 43
9 50
10 11
10 12
10 44
11 12
11 40
11 41
11 42
12 13
12 14
12 15
12 16
13 14
13 15
13 16
13 69
14 15
14 16
14 33
14 34
15 16
15 29
15 40
15 61
15 72
16 20
17 18
17 19
17 24
17 38
17 39
18 19
18 26
19 22
19 58
19 65
20 34
21 22
21 23
21 43
21 50
22 23
22 58
22 65
24 25
24 38
24 39
25 48
25 49
26 28
26 39
26 46
27 28
27 38
27 47
28 39
28 46
29 30
29 40
29 61
29 72
30 42
30 57
31 32
31 75
31 77
32 36
32 74
32 76
33 34
33 66
33 79
33 80
35 36
35 37
35 49
35 58
35 59
35 60
36 37
36 74
36 76
37 65
37 78
37 80
37 81
38 39
38 47
39 46
40 41
40 42
40 61
40 72
41 42
41 73
42 57
43 44
43 45
43 50
44 45
45 51
46 47
48 49
48 70
49 58
49 59
49 60
50 51
52 53
52 54
52 63
53 54
53 64
54 69
55 56
55 61
55 62
56 72
57 73
58 59
58 60
58 65
59 60
59 76
59 77
59 78
60 70
61 62
61 72
63 64
65 78
65 80
65 81
66 67
66 68
66 79
66 80
67 68
67 71
68 81
71 79
74 75
74 76
75 77
76 77
76 78
77 78
78 80
78 81
79 80
80 81
